w = 15;
n = 25;
x = [3, 3, 2, 2, 3, 3, 2, 2, 4, 4, 5, 2, 2, 3, 3, 4, 4, 2, 2, 5, 5, 4, 4, 2, 2];
y = [11, 13, 9, 7, 9, 7, 11, 13, 11, 13, 3, 11, 2, 11, 2, 5, 6, 12, 1, 3, 13, 12, 1, 5, 6];
l_max=66;
mag_w=100;
